
Gurobi 11.0.1 (win64) logging started Thu Mar 14 15:58:37 2024

Set parameter LogFile to value "res/logfile/roll3000log.txt"
Gurobi Optimizer version 11.0.1 build v11.0.1rc0 (win64 - Windows 11.0 (22621.2))

CPU model: AMD Ryzen Threadripper PRO 5975WX 32-Cores, instruction set [SSE2|AVX|AVX2]
Thread count: 32 physical cores, 64 logical processors, using up to 10 threads

Optimize a model with 2344 rows, 1166 columns and 30325 nonzeros
Model fingerprint: 0x665718e4
Variable types: 428 continuous, 738 integer (624 binary)
Coefficient statistics:
  Matrix range     [3e-01, 3e+02]
  Objective range  [1e+00, 1e+00]
  Bounds range     [6e-01, 1e+06]
  RHS range        [1e+00, 1e+03]
Presolve removed 1351 rows and 303 columns
Presolve time: 0.08s
Presolved: 993 rows, 863 columns, 19561 nonzeros
Crushed 448 out of 637 user cuts to presolved model
Variable types: 128 continuous, 735 integer (542 binary)

Root relaxation: objective 1.111563e+04, 977 iterations, 0.03 seconds (0.03 work units)

    Nodes    |    Current Node    |     Objective Bounds      |     Work
 Expl Unexpl |  Obj  Depth IntInf | Incumbent    BestBd   Gap | It/Node Time

     0     0 11115.6305    0  174          - 11115.6305      -     -    0s
     0     0 11741.1628    0  178          - 11741.1628      -     -    0s
     0     0 12082.1541    0  183          - 12082.1541      -     -    0s
     0     0 12156.5464    0  166          - 12156.5464      -     -    0s
     0     0 12169.8293    0  143          - 12169.8293      -     -    0s
     0     0 12169.8973    0  152          - 12169.8973      -     -    0s
     0     0 12361.5290    0  150          - 12361.5290      -     -    0s
     0     0 12439.8952    0  122          - 12439.8952      -     -    0s
     0     0 12449.9977    0  121          - 12449.9977      -     -    0s
     0     0 12457.8269    0  118          - 12457.8269      -     -    0s
     0     0 12458.7881    0  119          - 12458.7881      -     -    0s
     0     0 12459.3200    0  129          - 12459.3200      -     -    0s
     0     0 12459.3701    0  126          - 12459.3701      -     -    0s
     0     0 12517.3709    0  133          - 12517.3709      -     -    0s
     0     0 12535.6481    0  151          - 12535.6481      -     -    0s
     0     0 12544.3825    0  140          - 12544.3825      -     -    0s
     0     0 12547.3169    0  156          - 12547.3169      -     -    0s
     0     0 12547.8754    0  149          - 12547.8754      -     -    0s
     0     0 12547.8992    0  146          - 12547.8992      -     -    0s
     0     0 12608.5426    0  184          - 12608.5426      -     -    0s
     0     0 12614.0260    0  198          - 12614.0260      -     -    0s
     0     0 12615.7464    0  179          - 12615.7464      -     -    0s
     0     0 12652.3154    0  184          - 12652.3154      -     -    0s
     0     0 12656.1544    0  207          - 12656.1544      -     -    0s
     0     0 12658.3409    0  202          - 12658.3409      -     -    0s
     0     0 12658.4320    0  202          - 12658.4320      -     -    0s
     0     0 12670.7756    0  172          - 12670.7756      -     -    0s
     0     0 12672.7687    0  169          - 12672.7687      -     -    0s
     0     0 12675.3748    0  199          - 12675.3748      -     -    0s
     0     0 12676.8182    0  176          - 12676.8182      -     -    0s
H    0     0                    16937.000000 12676.8182  25.2%     -    0s
     0     0 12685.2774    0  190 16937.0000 12685.2774  25.1%     -    0s
H    0     0                    15563.000000 12688.6061  18.5%     -    0s
H    0     0                    15556.000000 12688.6061  18.4%     -    0s
H    0     0                    15548.000000 12688.6061  18.4%     -    0s
H    0     0                    15516.000000 12688.6061  18.2%     -    0s
H    0     0                    15509.000000 12688.6061  18.2%     -    0s
     0     0 12688.6061    0  195 15509.0000 12688.6061  18.2%     -    0s
     0     0 12688.6061    0  196 15509.0000 12688.6061  18.2%     -    0s
     0     0 12703.7796    0  179 15509.0000 12703.7796  18.1%     -    0s
     0     0 12715.4054    0  178 15509.0000 12715.4054  18.0%     -    0s
     0     0 12718.3508    0  167 15509.0000 12718.3508  18.0%     -    0s
     0     0 12719.5025    0  170 15509.0000 12719.5025  18.0%     -    0s
     0     0 12719.8292    0  158 15509.0000 12719.8292  18.0%     -    0s
     0     0 12721.4521    0  169 15509.0000 12721.4521  18.0%     -    0s
     0     0 12722.5621    0  173 15509.0000 12722.5621  18.0%     -    0s
     0     0 12723.5585    0  132 15509.0000 12723.5585  18.0%     -    0s
     0     0 12723.8785    0  180 15509.0000 12723.8785  18.0%     -    0s
     0     0 12726.7410    0  166 15509.0000 12726.7410  17.9%     -    0s
     0     0 12727.6026    0  171 15509.0000 12727.6026  17.9%     -    0s
     0     0 12727.6026    0  170 15509.0000 12727.6026  17.9%     -    0s
     0     0 12728.9064    0  162 15509.0000 12728.9064  17.9%     -    0s
     0     2 12728.9064    0  162 15509.0000 12728.9064  17.9%     -    1s
H   42    46                    13625.000000 12738.6005  6.51%  74.6    1s
H   71    88                    13622.000000 12738.6005  6.49%  73.1    1s
H   72    88                    13607.000000 12738.6005  6.38%  73.9    1s
H  124   135                    13541.000000 12738.6005  5.93%  67.0    1s
H  125   135                    13227.000000 12738.6005  3.69%  68.0    1s
H  161   163                    13078.000000 12738.6005  2.60%  60.1    1s
H  161   163                    13071.000000 12738.6005  2.54%  60.1    1s
H  163   163                    13011.000000 12738.6005  2.09%  60.3    1s
H  170   163                    12978.000000 12738.6005  1.84%  60.9    1s
H  199   201                    12949.000000 12738.6005  1.62%  60.5    1s
H  366   345                    12914.000000 12761.5304  1.18%  48.7    1s
H 1303   589                    12905.000000 12766.1103  1.08%  41.4    1s
H 1316   549                    12899.000000 12766.1103  1.03%  41.3    1s
H 1794   659                    12897.000000 12804.0868  0.72%  41.4    2s
H 1798   652                    12896.000000 12804.0868  0.71%  41.5    2s
H 1800   611                    12890.000000 12804.0868  0.67%  41.5    2s

Cutting planes:
  User: 11
  Learned: 1
  Gomory: 8
  Cover: 11
  Implied bound: 3
  Clique: 1
  MIR: 151
  StrongCG: 9
  Flow cover: 5
  GUB cover: 5
  Inf proof: 2
  Zero half: 20
  Mod-K: 6
  RLT: 3
  Relax-and-lift: 1

Explored 4341 nodes (178538 simplex iterations) in 3.00 seconds (4.98 work units)
Thread count was 10 (of 64 available processors)

Solution count 10: 12890 12896 12897 ... 13071

Optimal solution found (tolerance 1.00e-04)
Best objective 1.289000000000e+04, best bound 1.289000000000e+04, gap 0.0000%

User-callback calls 9764, time in user-callback 0.00 sec
